<number of tasks>
250

<cycle time>
1000

<order strength>
0.595


<task times>
1 55
2 201
3 172
4 79
5 24
6 53
7 114
8 256
9 66
10 199
11 22
12 111
13 250
14 162
15 67
16 56
17 113
18 216
19 233
20 140
21 160
22 152
23 221
24 152
25 24
26 211
27 292
28 53
29 88
30 92
31 20
32 219
33 301
34 175
35 172
36 55
37 205
38 74
39 131
40 106
41 40
42 71
43 226
44 196
45 150
46 179
47 118
48 52
49 78
50 217
51 161
52 228
53 263
54 81
55 219
56 67
57 166
58 267
59 56
60 133
61 235
62 49
63 21
64 108
65 27
66 90
67 159
68 168
69 192
70 172
71 49
72 202
73 136
74 39
75 86
76 46
77 121
78 241
79 261
80 286
81 128
82 101
83 145
84 37
85 178
86 244
87 323
88 31
89 139
90 147
91 46
92 41
93 208
94 24
95 184
96 129
97 158
98 36
99 166
100 56
101 70
102 369
103 187
104 50
105 82
106 193
107 84
108 81
109 50
110 36
111 224
112 221
113 230
114 68
115 192
116 72
117 217
118 136
119 172
120 72
121 97
122 230
123 81
124 51
125 136
126 119
127 126
128 157
129 121
130 79
131 236
132 133
133 72
134 47
135 36
136 64
137 188
138 301
139 72
140 90
141 321
142 82
143 91
144 74
145 189
146 198
147 162
148 255
149 174
150 135
151 45
152 214
153 159
154 149
155 111
156 167
157 115
158 132
159 172
160 236
161 210
162 154
163 59
164 177
165 82
166 206
167 102
168 167
169 110
170 127
171 24
172 222
173 40
174 109
175 130
176 200
177 176
178 400
179 86
180 189
181 45
182 66
183 169
184 104
185 106
186 231
187 149
188 30
189 220
190 126
191 187
192 49
193 119
194 236
195 167
196 267
197 140
198 127
199 90
200 80
201 216
202 146
203 201
204 112
205 92
206 22
207 174
208 96
209 179
210 132
211 85
212 95
213 154
214 125
215 176
216 191
217 148
218 43
219 38
220 158
221 41
222 97
223 210
224 153
225 81
226 95
227 215
228 142
229 87
230 91
231 244
232 90
233 185
234 202
235 108
236 57
237 21
238 221
239 85
240 289
241 76
242 157
243 83
244 157
245 143
246 242
247 290
248 163
249 41
250 209

<precedence relations>
1,240
2,37
3,37
4,62
5,97
6,73
7,158
8,13
8,14
8,15
8,16
8,19
8,21
8,22
9,10
9,11
9,12
9,17
9,18
9,20
9,22
10,47
11,47
12,37
13,62
14,62
15,62
16,62
17,195
18,97
19,73
20,73
21,158
22,23
22,24
22,25
22,26
22,27
22,28
22,29
22,30
22,31
22,32
22,33
22,34
23,47
24,161
25,37
26,37
27,37
28,37
29,97
30,97
31,73
32,122
33,192
34,35
34,36
34,38
34,39
34,40
34,41
34,42
34,43
34,44
34,45
34,46
35,47
36,47
37,48
37,49
37,50
37,51
37,52
37,53
37,55
37,56
37,74
38,128
39,62
40,62
41,62
42,62
43,62
44,195
45,158
46,54
46,88
47,57
47,58
47,59
47,60
47,61
47,92
48,62
49,62
50,158
51,192
52,63
53,73
54,122
55,64
55,121
55,150
57,158
58,74
58,93
59,157
59,162
59,171
59,182
60,66
60,114
60,151
61,193
62,66
62,67
62,68
62,69
62,70
62,71
62,72
63,73
64,65
64,75
64,113
65,128
66,128
67,77
67,78
68,96
68,158
69,76
69,99
69,115
70,116
70,119
70,126
71,77
71,84
71,91
72,91
72,142
72,151
73,76
73,79
73,80
73,81
73,82
73,83
74,158
75,99
75,234
76,128
77,97
78,97
79,122
80,158
81,192
82,85
82,89
82,91
82,93
82,94
83,87
83,88
83,89
83,92
84,86
84,90
84,114
84,117
84,118
84,119
85,181
86,195
87,97
88,97
89,97
90,158
91,95
91,113
92,94
92,96
92,126
92,159
92,165
93,98
93,124
93,187
94,240
95,128
96,195
97,100
97,101
97,102
97,103
97,104
97,105
97,106
97,107
97,108
97,109
97,110
98,99
98,111
98,123
99,240
100,181
101,127
102,112
102,124
102,143
102,157
103,120
103,151
104,114
104,115
104,119
105,112
105,116
106,113
106,119
107,117
107,150
107,154
107,156
108,118
110,150
110,164
111,126
111,159
112,161
113,161
114,128
115,122
116,122
117,158
118,158
119,123
119,124
119,125
119,127
119,150
120,121
120,126
121,128
122,129
122,130
122,131
122,132
122,133
122,134
122,135
122,136
122,137
122,138
122,139
122,140
122,141
123,158
124,158
125,142
125,182
125,187
126,150
127,128
127,142
127,151
128,144
128,145
128,146
128,147
128,148
129,240
131,171
131,231
132,150
132,156
133,143
133,182
134,161
135,149
136,163
137,149
137,151
138,143
140,238
141,151
141,161
142,156
142,191
143,161
144,155
145,160
146,152
146,156
147,152
147,155
148,152
148,153
148,154
149,158
150,155
151,171
151,222
152,158
153,229
154,157
155,160
156,159
156,164
157,161
158,163
158,164
158,165
158,166
158,167
158,168
158,169
158,170
159,192
160,162
160,171
160,189
161,172
161,173
161,174
161,175
161,176
161,177
161,178
161,179
161,180
161,191
162,181
163,181
164,195
165,195
166,211
166,224
167,182
168,223
169,181
169,182
170,191
170,192
172,187
173,220
174,188
174,211
178,192
178,211
179,187
180,187
180,211
181,183
181,184
181,185
181,186
182,189
182,192
183,191
183,194
184,193
184,220
186,193
187,195
188,192
189,190
190,195
191,195
192,196
192,197
192,198
192,199
192,200
192,201
192,202
192,203
192,204
192,205
192,206
192,207
192,208
192,209
192,210
193,211
193,240
194,224
195,212
195,213
195,214
195,215
195,216
195,217
195,218
195,219
196,235
199,219
199,230
200,239
202,220
202,221
204,223
205,231
206,232
207,232
208,239
209,219
211,232
212,220
213,222
218,220
219,221
219,233
220,222
221,240
222,223
222,224
222,225
223,227
223,229
224,226
224,228
225,226
225,230
225,231
226,240
227,231
228,231
229,232
231,235
232,233
232,234
233,237
234,238
235,236
235,239
236,240
239,241
240,242
240,243
240,244
240,245
240,246
240,247
240,248
240,249
240,250

<end>
